outputs/case_444.model.txt
inspection_rules_applied = False
other_necessary_measures = False
meeting_resolution_revoked = False
contract_or_major_commitment_without_approval = False
net_worth_ratio = 3
capital_increase_ordered = False
payment_exceed_limit_allowed = False
supervision_deadline_extended_or_plan_resubmitted = False
restriction_on_business_or_funds = True
net_worth = 1000000
supervision_procedure_defined = False
capital_improvement_completed = True
registration_cancelled = False
stop_sale_or_limit_product = True
takeover_reorganization_petition_filed = False
major_event_affecting_market_and_no_compliance = False
supervision_delegate_assigned = False
capital_adequacy_ratio = 40
manager_or_staff_dismissed = False
other_major_financial_actions_without_approval = False
takeover_exempt_company_law = False
financial_or_business_significantly_worsened = False
supervision_takeover_or_shutdown_or_dissolution = False
delegate_exempt_gov_procurement = False
board_or_supervisor_dismissed_or_suspended = False
legal_operation_permission = True
license_permitted = True
supervision_stop_sale_applied = True
supervision_procedure_regulated = False
supervision_capital_increase_ordered = False
capital_level_severely_insufficient_and_no_compliance = False
supervision_measures_for_other_worsened_cases = True
supervision_delegate_others = False
business_license_obtained = True
supervision_major_event_extension = True
takeover_reorganization_petition = False
capital_level_significantly_worsened_and_no_compliance = False
supervision_board_dismissed = False
capital_level = 4
deposit_guarantee_paid = True
foreign_business_license_obtained = True
foreign_insurance_legal_operation_permission = True
registration_completed = True
supervision_inspection_applied = False
foreign_license_permitted = True
foreign_registration_completed = True
foreign_deposit_guarantee_paid = True
supervision_manager_dismissed = False
penalty = False
supervision_delegate_exempt_gov_procurement = False
supervision_measures_for_severe_cases = True
supervision_restriction_applied = True
supervision_takeover_exempt_company_law = False
supervision_meeting_resolution_revoked = False
supervision_other_measures = False
board_dismissal_registration_cancelled = True
supervision_restriction_on_actions = True